T = 4;
K = 3;
Demand = [15000, 30000, 25000, 40000, 27000];
NumGenerator = [12, 10, 5];
MinLevel = [850, 1250, 1500];
MaxLevel = [2000, 1750, 4000];
RunCost = [1000, 2600, 3000];
ExtraCost = [2.0, 1.3, 3.0];
StartCost = [2000, 1000, 500];